%mem = 400mb
%nprocs= 1
#t opt=modredundant pm6 

No Title

 -1 1
C -8.2059 -4.5733 0.0
O -8.51703513 -5.15038697 1.03757993
C -8.5982 -5.1117 -1.3885
H -9.19986252 -4.38648224 -1.89530804
H -7.71388574 -5.3033964 -1.95961155
H -9.15335181 -6.01942139 -1.27528038
N -7.47955545676 -3.38566363364 -0.148133270384
H -7.20835457524 -2.88828421523 -0.972186703823
C -7.11044498393 -2.87908938288 1.15829010846
H -6.47981485339 -3.60854400071 1.66652386276
C -6.34129210559 -1.56747196918 1.04129849892
C -8.34236881103 -2.621138983 2.01404165427
H -6.96324868998 -0.824195372105 0.542489708064
H -6.07720168193 -1.21050506878 2.03675402211
H -5.43288984357 -1.7288982656 0.460913649065
O -8.28932331252 -2.78899461113 3.26006809777
N -9.42425758798 -2.20674080498 1.22804494668
H -9.46641077848 -2.07335266322 0.23787780052
C -10.5970943311 -1.96116254743 2.04275185776
H -10.3011450617 -1.46207790765 2.96548069244
C -11.5992294602 -1.07578860511 1.30963413723
C -11.2999008278 -3.26357700606 2.39808977983
H -11.7637285388 -1.46670368121 0.305529984684
H -12.5432327458 -1.06641686515 1.85449216425
C -11.0505262365 0.346289567695 1.21826836323
O -12.3353441638 -3.24506853292 3.11299240885
O -11.0052374509 1.01577049184 2.28473107679
O -10.6819030292 0.749547567447 0.0828826568238
N -10.6398632633 -4.36234096884 1.83500171606
H -9.81703805046 -4.37704897544 1.2668973165
C -11.3089608686 -5.60228738288 2.17329647265
C -12.4103082651 -5.90259606858 1.16665179504
H -10.5875216344 -6.41931801388 2.16400510965
H -11.7496190244 -5.51865344863 3.16673781708
O -12.6519938193 -5.08944232438 0.237167479716
N -13.0206405491 -7.12745448182 1.46197597385
H -12.8285828359 -7.77363484911 2.20059952857
C -14.084359577 -7.41750289365 0.489724074615
H -14.5401882787 -8.35551376283 0.729005922165
H -14.8217479676 -6.6430159673 0.526170762255
H -13.6654141549 -7.46510262832 -0.493698010826

D 1 3 6 7 F
D 3 6 7 9 F
D 6 7 9 12 F
D 7 9 12 17 F
D 9 12 17 19 F
D 12 17 19 22 F
D 17 19 22 29 F
D 19 22 29 31 F
D 22 29 31 32 F
D 29 31 32 36 F
D 31 32 36 38 F
D 32 36 38 39 F
D 17 19 21 25 F
D 19 21 25 27 F


